# 12026
param k := 6;
param n := 50;
param s := 1;
set E :=  (0,15) (0,23) (0,26) (1,19) (1,23) (1,34) (1,47) (2,41) (2,42) (3,37) (3,43) (3,44) (4,14) (5,14) (5,39) (6,36) (7,10) (7,11) (8,45) (9,38) (10,35) (10,36) (12,16) (12,32) (13,18) (13,40) (14,33) (16,42) (17,18) (17,49) (19,42) (19,45) (20,25) (20,28) (21,28) (21,41) (22,23) (23,49) (24,35) (26,29) (27,28) (28,31) (30,49) (31,43) (35,40) (38,46) (39,42) (45,46) (45,48);